15
1 0 12
2 0 8
2 1 7
3 0 7
3 1 8
3 2 8
4 0 2
4 1 10
4 2 3
4 3 2
5 0 12
5 1 8
5 2 1
5 3 7
5 4 7
6 0 1
6 1 4
6 2 1
6 3 7
6 4 9
6 5 5
7 0 13
7 1 7
7 2 1
7 3 4
7 4 8
7 5 4
7 6 2
8 0 3
8 1 8
8 2 11
8 3 6
8 4 5
8 5 8
8 6 6
8 7 11
9 0 8
9 1 5
9 2 8
9 3 6
9 4 4
9 5 4
9 6 10
9 7 10
9 8 5
10 0 6
10 1 13
10 2 5
10 3 8
10 4 5
10 5 5
10 6 4
10 7 3
10 8 13
10 9 3
11 0 3
11 1 13
11 2 4
11 3 7
11 4 12
11 5 10
11 6 4
11 7 13
11 8 13
11 9 10
11 10 7
12 0 11
12 1 2
12 2 4
12 3 6
12 4 13
12 5 12
12 6 4
12 7 7
12 8 4
12 9 11
12 10 5
12 11 7
13 0 13
13 1 10
13 2 3
13 3 8
13 4 7
13 5 3
13 6 9
13 7 3
13 8 9
13 9 3
13 10 1
13 11 13
13 12 9
14 0 7
14 1 13
14 2 11
14 3 9
14 4 8
14 5 7
14 6 7
14 7 1
14 8 10
14 9 7
14 10 3
14 11 13
14 12 8
14 13 3
